Version identifier: 12.10.0.0 | 2019-11-26 | 843d4de
CPXPARAM_WorkMem                                 16384
CPXPARAM_MIP_Limits_TreeMemory                   24576
Tried aggregator 2 times.
MIP Presolve eliminated 8 rows and 0 columns.
MIP Presolve added 16 rows and 0 columns.
Aggregator did 30 substitutions.
Reduced MIP has 50 rows, 50 columns, and 222 nonzeros.
Reduced MIP has 50 binaries, 0 generals, 0 SOSs, and 0 indicators.
Presolve time = 0,00 sec. (0,41 ticks)
Found incumbent of value 146,000000 after 0,00 sec. (0,48 ticks)
Probing time = 0,00 sec. (0,17 ticks)
Tried aggregator 1 time.
Detecting symmetries...
Reduced MIP has 50 rows, 50 columns, and 222 nonzeros.
Reduced MIP has 50 binaries, 0 generals, 0 SOSs, and 0 indicators.
Presolve time = 0,00 sec. (0,17 ticks)
Probing time = 0,00 sec. (0,17 ticks)
Clique table members: 211.
MIP emphasis: balance optimality and feasibility.
MIP search method: dynamic search.
Parallel mode: deterministic, using up to 16 threads.
Root relaxation solution time = 0,00 sec. (0,08 ticks)

        Nodes                                         Cuts/
   Node  Left     Objective  IInf  Best Integer    Best Bound    ItCnt     Gap

*     0+    0                          146,0000        0,0000           100,00%
*     0+    0                          141,0000        0,0000           100,00%
*     0+    0                          137,0000        0,0000           100,00%
      0     0       77,0000    30      137,0000       77,0000       15   43,80%
      0     0       93,6500    30      137,0000     Cuts: 112       44   31,64%
*     0+    0                          134,0000       93,6500            30,11%
      0     0       95,5449    30      134,0000      Cuts: 28       59   28,70%
      0     0       95,9838    30      134,0000      Cuts: 64       67   28,37%
      0     0       98,0135    30      134,0000  ZeroHalf: 11       82   26,86%
      0     0       98,2867    30      134,0000  ZeroHalf: 10       93   26,65%
Detecting symmetries...
      0     0       98,3470    30      134,0000   ZeroHalf: 5       98   26,61%
      0     0       98,5361    30      134,0000      Cuts: 20      115   26,47%
      0     0       98,6126    30      134,0000       Cuts: 9      125   26,41%
      0     0       98,6819    30      134,0000  ZeroHalf: 11      133   26,36%
      0     0       98,7198    30      134,0000      Cuts: 12      136   26,33%
      0     0       98,7581    30      134,0000       Cuts: 9      142   26,30%
      0     0       98,9122    30      134,0000      Cuts: 26      155   26,18%
      0     0       98,9404    30      134,0000      Cuts: 20      160   26,16%
      0     0       99,0482    30      134,0000       Cuts: 7      177   26,08%
      0     0       99,0550    30      134,0000      Cuts: 13      180   26,08%
      0     0       99,0756    30      134,0000   ZeroHalf: 4      187   26,06%
      0     0       99,0949    30      134,0000   ZeroHalf: 4      192   26,05%
      0     0       99,1690    30      134,0000   ZeroHalf: 6      205   25,99%
      0     0       99,2710    30      134,0000  ZeroHalf: 14      227   25,92%
      0     0       99,2951    30      134,0000      Cuts: 15      237   25,90%
      0     0       99,3067    30      134,0000   ZeroHalf: 5      240   25,89%
      0     0        cutoff            134,0000      134,0000      240    0,00%
Elapsed time = 0,04 sec. (19,36 ticks, tree = 0,01 MB, solutions = 4)

Clique cuts applied:  6
Cover cuts applied:  8
Mixed integer rounding cuts applied:  5
Zero-half cuts applied:  13
Gomory fractional cuts applied:  1

Root node processing (before b&c):
  Real time             =    0,04 sec. (19,36 ticks)
Parallel b&c, 16 threads:
  Real time             =    0,00 sec. (0,00 ticks)
  Sync time (average)   =    0,00 sec.
  Wait time (average)   =    0,00 sec.
                          ------------
Total (root+branch&cut) =    0,04 sec. (19,36 ticks)
